B30 N30
1.0
13.053709 0.000000 0.000000
-0.000007 12.560658 0.000000
0.000021 0.000013 14.000000
B N
30 30
direct
0.056395 0.101848 0.231188 B
0.559216 0.799525 0.231188 B
0.390863 0.900026 0.231188 B
0.223306 -0.003419 0.231188 B
0.886789 0.201897 0.231188 B
0.725653 0.299999 0.231188 B
0.554322 0.403643 0.231188 B
0.385688 0.498716 0.231188 B
0.219631 0.600179 0.231188 B
0.724725 0.898992 0.231188 B
0.554270 -0.001145 0.231188 B
0.386550 0.101699 0.231188 B
0.224943 0.197299 0.231188 B
0.055248 0.301515 0.231188 B
0.891258 0.397901 0.231188 B
0.720936 0.501616 0.231188 B
0.552520 0.601046 0.231188 B
0.386075 0.699108 0.231188 B
0.886502 -0.001829 0.231188 B
0.722719 0.098927 0.231188 B
0.555805 0.197657 0.231188 B
0.392034 0.300436 0.231188 B
0.224696 0.402768 0.231188 B
0.056955 0.497649 0.231188 B
0.890609 0.597755 0.231188 B
0.722741 0.698070 0.231188 B
0.055314 0.700034 0.231188 B
0.891579 0.798207 0.231188 B
0.220203 0.798683 0.231188 B
0.056586 0.901108 0.231188 B
0.279631 0.101135 0.231174 N
0.780156 0.801102 0.231174 N
0.614579 0.898880 0.231174 N
0.446693 0.001694 0.231174 N
0.108676 0.196978 0.231174 N
0.945367 0.300988 0.231174 N
0.776413 0.397638 0.231174 N
0.610554 0.500744 0.231174 N
0.444086 0.600978 0.231174 N
0.943897 0.897235 0.231174 N
0.775513 -0.001683 0.231174 N
0.612995 0.102340 0.231174 N
0.442497 0.197748 0.231174 N
0.279498 0.299824 0.231174 N
0.112991 0.400572 0.231174 N
0.946922 0.501013 0.231174 N
0.778414 0.601293 0.231174 N
0.607738 0.699494 0.231174 N
0.108962 0.001306 0.231174 N
0.942596 0.103328 0.231174 N
0.777000 0.200916 0.231174 N
0.609312 0.298049 0.231174 N
0.446852 0.397684 0.231174 N
0.278649 0.499766 0.231174 N
0.112087 0.602482 0.231174 N
0.946407 0.701236 0.231174 N
0.277094 0.702984 0.231174 N
0.109555 0.802057 0.231174 N
0.445123 0.799038 0.231174 N
0.279995 0.898472 0.231174 N
