System = BN
ISTART = 0
ICHARG = 2
ALGO = All

PREC= Normal

EDIFF=1.0E-05

EDIFFG = -0.01
ENCUT =600
IBRION = 2
NSW = 0
ISMEAR=0
SIGMA=0.1
ISIF=2
ISYM=0
NELM = 100
 


 
