B2 N2                                   
1.0
       13.0537090302         0.0000000000         0.0000000000
       -0.0000066902        12.5606575012         0.0000000000
        0.0000206866         0.0000126418         14
    B    N
   30   30
Cartesian
     0.725267529         1.256075621         3.236628294
     7.252117157        10.048537254         3.236628294
     5.076497555        11.304601669         3.236628294
     2.900885820         0.000009482         3.236628294
    11.603356361         2.512141705         3.236628294
     9.427738190         3.768206835         3.236628294
     7.252120495         5.024273396         3.236628294
     5.076499939         6.280339241         3.236628294
     2.900881529         7.536404133         3.236628294
     9.427733421        11.304602623         3.236628532
     7.252123356         0.000009482         3.236628294
     5.076502800         1.256075382         3.236628294
     2.900884390         2.512141943         3.236628532
     0.725265980         3.768207788         3.236628294
    11.603353500         5.024273396         3.236628532
     9.427736282         6.280339718         3.236628294
     7.252119541         7.536405087         3.236628294
     5.076499462         8.792470932         3.236628294
    11.603356361         0.000009482         3.236628294
     9.427739143         1.256075621         3.236628532
     7.252121925         2.512141466         3.236628294
     5.076500893         3.768207788         3.236628294
     2.900882721         5.024272442         3.236628294
     0.725264549         6.280339241         3.236628294
    11.603353500         7.536404133         3.236628532
     9.427735329         8.792469978         3.236628532
     0.725263476         8.792469978         3.236628294
    11.603351593        10.048536301         3.236628532
     2.900880814        10.048537254         3.236628294
     0.725261807        11.304602623         3.236628294
     3.626003981         1.256075263         3.236441135
    10.152852058        10.048535347         3.236441135
     7.977218628        11.304601669         3.236441374
     5.801631927         0.000009481         3.236440659
     1.450368881         2.512140989         3.236441374
    12.328482628         3.768206120         3.236441135
    10.152854919         5.024271965         3.236440897
     7.977221966         6.280338287         3.236440897
     5.801627159         7.536404133         3.236441135
    12.328478813        11.304603577         3.236440897
    10.152857780         0.000009481         3.236440897
     7.977224827         1.256074786         3.236441135
     5.801629543         2.512140274         3.236441135
     3.626002789         3.768206120         3.236441135
     1.450367451         5.024272442         3.236441135
    12.328480721         6.280337334         3.236441135
    10.152853966         7.536403656         3.236441135
     7.977220058         8.792469978         3.236440897
     1.450370312         0.000009481         3.236441135
    12.328483582         1.256075978         3.236440897
    10.152856827         2.512140036         3.236441374
     7.977222919         3.768205881         3.236440897
     5.801628113         5.024272442         3.236441135
     3.626001358         6.280337334         3.236440897
     1.450365782         7.536402702         3.236441135
    12.328479767         8.792469978         3.236440897
     3.626000643         8.792469978         3.236441135
     1.450364828        10.048535347         3.236440897
     5.801626682        10.048535347         3.236441135
     3.625999451        11.304602623         3.236441135
